Gurobi Optimizer version 9.1.2 build v9.1.2rc0 (linux64)
Thread count: 36 physical cores, 72 logical processors, using up to 32 threads
Optimize a model with 12 rows, 57 columns and 590 nonzeros
Model fingerprint: 0xf32eec78
Model has 47 quadratic constraints
Coefficient statistics:
  Matrix range     [2e-05, 3e+00]
  QMatrix range    [1e+00, 1e+00]
  QLMatrix range   [1e+00, 1e+00]
  Objective range  [8e-03, 7e-01]
  Bounds range     [1e+00, 1e+00]
  RHS range        [1e+00, 1e+00]
Presolve removed 9 rows and 0 columns

Continuous model is non-convex -- solving as a MIP.

Presolve removed 9 rows and 0 columns
Presolve time: 0.00s
Presolved: 189 rows, 57 columns, 443 nonzeros
Presolved model has 47 bilinear constraint(s)
Variable types: 57 continuous, 0 integer (0 binary)

Root relaxation: objective -1.743721e+00, 44 iterations, 0.00 seconds

    Nodes    |    Current Node    |     Objective Bounds      |     Work
 Expl Unexpl |  Obj  Depth IntInf | Incumbent    BestBd   Gap | It/Node Time

     0     0   -1.74372    0   38          -   -1.74372      -     -    0s
H    0     0                       0.6147548   -1.74372   384%     -    0s
     0     0   -1.64739    0    1    0.61475   -1.64739   368%     -    0s
H    0     0                      -1.6450460   -1.64739  0.14%     -    0s
     0     0     cutoff    0        -1.64505   -1.64505  0.00%     -    0s

Cutting planes:
  RLT: 25
  BQP: 3

Explored 1 nodes (76 simplex iterations) in 0.01 seconds
Thread count was 32 (of 72 available processors)

Solution count 2: -1.64505 0.614755 
No other solutions better than -1.64505

Optimal solution found (tolerance 1.00e-04)
Best objective -1.645045978473e+00, best bound -1.645045978473e+00, gap 0.0000%

User-callback calls 78, time in user-callback 0.00 sec
Gurobi Optimizer version 9.1.2 build v9.1.2rc0 (linux64)
Thread count: 36 physical cores, 72 logical processors, using up to 32 threads
Optimize a model with 24 rows, 120 columns and 2480 nonzeros
Model fingerprint: 0x9e6e11b1
Model has 100 quadratic constraints
Coefficient statistics:
  Matrix range     [8e-06, 4e+00]
  QMatrix range    [1e+00, 1e+00]
  QLMatrix range   [1e+00, 1e+00]
  Objective range  [4e-03, 9e-01]
  Bounds range     [1e+00, 1e+00]
  RHS range        [1e+00, 1e+00]
Presolve removed 17 rows and 0 columns

Continuous model is non-convex -- solving as a MIP.

Presolve removed 17 rows and 0 columns
Presolve time: 0.00s
Presolved: 407 rows, 120 columns, 1232 nonzeros
Presolved model has 100 bilinear constraint(s)
Variable types: 120 continuous, 0 integer (0 binary)

Root relaxation: objective -6.175682e+00, 139 iterations, 0.00 seconds

    Nodes    |    Current Node    |     Objective Bounds      |     Work
 Expl Unexpl |  Obj  Depth IntInf | Incumbent    BestBd   Gap | It/Node Time

     0     0   -6.17568    0   93          -   -6.17568      -     -    0s
H    0     0                       2.0222951   -6.17568   405%     -    0s
     0     0   -4.28076    0  100    2.02230   -4.28076   312%     -    0s
H    0     0                       0.3178350   -4.28076  1447%     -    0s
     0     0   -4.27075    0  100    0.31783   -4.27075  1444%     -    0s
     0     0   -3.78923    0  100    0.31783   -3.78923  1292%     -    0s
H    0     0                       0.2397088   -3.78923  1681%     -    0s
     0     0   -3.77055    0  100    0.23971   -3.77055  1673%     -    0s
     0     0   -3.61975    0  100    0.23971   -3.61975  1610%     -    0s
H    0     0                      -0.0498651   -3.61975  7159%     -    0s
     0     0   -3.60928    0   90   -0.04987   -3.60928  7138%     -    0s
     0     0   -3.57739    0   91   -0.04987   -3.57739  7074%     -    0s
     0     0   -3.55606    0  100   -0.04987   -3.55606  7031%     -    0s
     0     0   -3.54413    0  100   -0.04987   -3.54413  7007%     -    0s
H    0     0                      -0.1543615   -3.54413  2196%     -    0s
     0     0   -3.54294    0  100   -0.15436   -3.54294  2195%     -    0s
     0     0   -3.52919    0  100   -0.15436   -3.52919  2186%     -    0s
     0     0   -3.52721    0  100   -0.15436   -3.52721  2185%     -    0s
     0     0   -3.52623    0  100   -0.15436   -3.52623  2184%     -    0s
     0     0   -3.52563    0  100   -0.15436   -3.52563  2184%     -    0s
     0     0   -3.52460    0  100   -0.15436   -3.52460  2183%     -    0s
H    0     0                      -0.5163313   -3.52460   583%     -    0s
H    0     0                      -1.9855618   -3.52460  77.5%     -    0s
H    0     0                      -2.0014356   -3.52460  76.1%     -    0s
H    0     0                      -2.0088542   -3.52460  75.5%     -    0s
     0     2   -3.52460    0  100   -2.00885   -3.52460  75.5%     -    0s
*  733   770              26      -2.1754878   -3.10481  42.7%  29.4    0s
*  735   770              27      -2.1755050   -3.10481  42.7%  29.4    0s
*  933   916              35      -2.1995111   -3.10481  41.2%  26.6    0s
*  934   916              35      -2.1995216   -3.10481  41.2%  26.6    0s
* 1112  1086              38      -2.2175739   -3.10481  40.0%  24.7    0s
* 1116  1086              41      -2.2205716   -3.10481  39.8%  24.7    0s
* 1149  1086              40      -2.3322675   -3.10481  33.1%  24.2    0s
* 1279  1229              25      -2.7888209   -3.10481  11.3%  23.3    0s
* 1280  1229              25      -2.7888209   -3.10481  11.3%  23.3    0s
* 1871  1618              20      -2.7943662   -3.06687  9.75%  20.7    0s
* 2089  1618              37      -2.8027049   -3.06687  9.43%  19.6    0s
* 2180  1618              31      -2.8125666   -3.06687  9.04%  19.1    0s
* 2456  1910              40      -2.8154513   -2.99078  6.23%  17.9    0s
* 2459  1910              40      -2.8155753   -2.99078  6.22%  17.9    0s
* 2473  1910              45      -2.8532719   -2.99078  4.82%  17.8    0s
* 2475  1910              46      -2.8533923   -2.99078  4.81%  17.8    0s
* 2476  1910              46      -2.8533968   -2.99078  4.81%  17.8    0s
* 2478  1910              45      -2.8566016   -2.99078  4.70%  17.8    0s
* 2480  1910              46      -2.8567146   -2.99078  4.69%  17.8    0s
* 2694  2065              29      -2.8573638   -2.96226  3.67%  17.1    0s
* 2695  2065              29      -2.8573754   -2.96226  3.67%  17.1    0s
* 2697  2065              29      -2.8579868   -2.96226  3.65%  17.1    0s
* 2698  2065              29      -2.8579885   -2.96226  3.65%  17.1    0s
* 2777  2065              51      -2.8667097   -2.96226  3.33%  16.8    0s
* 2778  2065              51      -2.8673141   -2.96226  3.31%  16.8    0s
* 2780  2065              51      -2.8678570   -2.96226  3.29%  16.8    0s
* 2861  2065              36      -2.8713965   -2.96226  3.16%  16.5    0s
* 3161  2065              34      -2.8774116   -2.96226  2.95%  15.6    0s
* 3167  2065              28      -2.9098001   -2.96226  1.80%  15.6    0s
* 3235  2077              22      -2.9099006   -2.96226  1.80%  15.5    0s
* 3238  2077              24      -2.9101634   -2.96226  1.79%  15.5    0s
* 3304  2077              24      -2.9101736   -2.96226  1.79%  15.3    0s
* 3305  2077              24      -2.9101744   -2.96226  1.79%  15.3    0s
* 3349  2077              30      -2.9103018   -2.96226  1.79%  15.2    0s
* 3410  2077              33      -2.9170175   -2.96226  1.55%  15.0    0s
* 3411  2077              33      -2.9170176   -2.96226  1.55%  15.0    0s
* 3412  2077              32      -2.9170180   -2.96226  1.55%  15.0    0s
* 3598  2077              48      -2.9180804   -2.96226  1.51%  14.5    0s
* 3893  1825              27      -2.9180815   -2.95341  1.21%  13.8    0s
* 3894  1825              27      -2.9180823   -2.95341  1.21%  13.8    0s
* 3936  1825              30      -2.9186192   -2.93178  0.45%  13.8    0s
* 3941  1825              34      -2.9186280   -2.93178  0.45%  13.8    0s
* 3942  1825              34      -2.9186289   -2.93178  0.45%  13.8    0s
* 3943  1825              33      -2.9186298   -2.93178  0.45%  13.7    0s
* 3977  1825              36      -2.9188441   -2.93038  0.40%  13.7    0s
* 3979  1825              36      -2.9188720   -2.93038  0.39%  13.7    0s
* 4379  1825              24      -2.9189098   -2.93038  0.39%  12.9    0s
* 4458  1825              28      -2.9189393   -2.93038  0.39%  12.7    0s
* 4558  1825              34      -2.9190477   -2.93038  0.39%  12.6    0s
* 4560  1825              35      -2.9190477   -2.93038  0.39%  12.5    0s
* 4561  1825              35      -2.9190480   -2.93038  0.39%  12.5    0s
* 4680  1166              27      -2.9190566   -2.93013  0.38%  12.4    0s
* 4682  1166              28      -2.9190568   -2.93013  0.38%  12.4    0s
* 4683  1166              28      -2.9190575   -2.93013  0.38%  12.4    0s
* 4685  1166              27      -2.9190578   -2.93013  0.38%  12.4    0s
* 4686  1166              27      -2.9190587   -2.93013  0.38%  12.4    0s
* 5620   404              26      -2.9190595   -2.91946  0.01%  10.7    0s
* 5870   404              26      -2.9190611   -2.91933  0.01%  10.3    0s

Cutting planes:
  RLT: 90
  BQP: 22
  PSD: 9

Explored 6747 nodes (61739 simplex iterations) in 0.94 seconds
Thread count was 32 (of 72 available processors)

Solution count 10: -2.91906 -2.91906 -2.91906 ... -2.91894

Optimal solution found (tolerance 1.00e-04)
Best objective -2.919061082846e+00, best bound -2.919105205085e+00, gap 0.0015%

User-callback calls 13941, time in user-callback 0.00 sec



objective value: -2.919061082845826
objective bound: -2.919105205084646
x_opt: [0.0, 1.0, 1.0, 1.0, 1.0, 0.0, 0.0, 0.0, 0.3076041299780857, 1.0, 0.0, 0.3340575174672248, 1.0, 1.0, 1.0000000000000002, 0.08546761280461262, 0.0, 0.0, 0.027441567899149488, 0.5501313522518586]
GUROBI solution time: 0.9377999305725098




